Using license file /home/brunoalmeda/gurobi.lic
Academic license - for non-commercial use only
Changed value of parameter TimeLimit to 7200.0
   Prev: inf  Min: 0.0  Max: inf  Default: inf
Changed value of parameter lazyconstraints to 1
   Prev: 0  Min: 0  Max: 1  Default: 0
Gurobi Optimizer version 9.0.1 build v9.0.1rc0 (linux64)
Optimize a model with 961 rows, 3720 columns and 8130 nonzeros
Model fingerprint: 0x4731f1de
Variable types: 930 continuous, 2790 integer (2790 binary)
Coefficient statistics:
  Matrix range     [1e+00, 9e+00]
  Objective range  [2e+05, 2e+06]
  Bounds range     [1e+00, 3e+01]
  RHS range        [1e+00, 1e+00]
Presolve removed 1 rows and 30 columns
Presolve time: 0.01s
Presolved: 960 rows, 3690 columns, 8070 nonzeros
Variable types: 900 continuous, 2790 integer (2790 binary)
Found heuristic solution: objective 3.345500e+07

Root relaxation: objective 8.338467e+06, 1388 iterations, 0.02 seconds

    Nodes    |    Current Node    |     Objective Bounds      |     Work
 Expl Unexpl |  Obj  Depth IntInf | Incumbent    BestBd   Gap | It/Node Time

     0     0 8338466.88    0   35 3.3455e+07 8338466.88  75.1%     -    0s
H    0     0                    9361687.1139 8338466.88  10.9%     -    0s
     0     0 8406162.00    0   39 9361687.11 8406162.00  10.2%     -    0s
     0     0 8415593.78    0   44 9361687.11 8415593.78  10.1%     -    0s
     0     0 8417472.98    0   46 9361687.11 8417472.98  10.1%     -    0s
     0     0 8418021.75    0   49 9361687.11 8418021.75  10.1%     -    0s
     0     0 8421372.95    0   38 9361687.11 8421372.95  10.0%     -    0s
     0     0 8421487.50    0   41 9361687.11 8421487.50  10.0%     -    0s
     0     0 8421559.28    0   43 9361687.11 8421559.28  10.0%     -    0s
     0     0 8421592.70    0   47 9361687.11 8421592.70  10.0%     -    0s
     0     0 8429464.36    0   62 9361687.11 8429464.36  10.0%     -    0s
H    0     0                    8581474.2072 8429464.36  1.77%     -    0s
     0     0 8429676.10    0   61 8581474.21 8429676.10  1.77%     -    0s
     0     0 8429696.03    0   63 8581474.21 8429696.03  1.77%     -    0s
     0     0 8442208.86    0   65 8581474.21 8442208.86  1.62%     -    0s
     0     0 8442208.86    0   35 8581474.21 8442208.86  1.62%     -    0s
     0     0 8442208.86    0   55 8581474.21 8442208.86  1.62%     -    0s
     0     0 8442208.86    0   53 8581474.21 8442208.86  1.62%     -    0s
     0     0 8442861.36    0   63 8581474.21 8442861.36  1.62%     -    0s
     0     0 8443029.78    0   63 8581474.21 8443029.78  1.61%     -    0s
     0     0 8443081.42    0   64 8581474.21 8443081.42  1.61%     -    0s
     0     0 8443081.42    0   64 8581474.21 8443081.42  1.61%     -    0s
     0     0 8459259.00    0   53 8581474.21 8459259.00  1.42%     -    0s
     0     0 8482486.45    0   54 8581474.21 8482486.45  1.15%     -    0s
     0     0 8482746.63    0   50 8581474.21 8482746.63  1.15%     -    0s
     0     0 8482806.31    0   56 8581474.21 8482806.31  1.15%     -    0s
     0     0 8486084.35    0   57 8581474.21 8486084.35  1.11%     -    0s
     0     0 8486420.85    0   58 8581474.21 8486420.85  1.11%     -    0s
     0     0 8486433.83    0   60 8581474.21 8486433.83  1.11%     -    0s
     0     0 8488211.32    0   67 8581474.21 8488211.32  1.09%     -    0s
     0     0 8488401.93    0   72 8581474.21 8488401.93  1.08%     -    0s
     0     0 8488438.35    0   72 8581474.21 8488438.35  1.08%     -    0s
     0     0 8489064.24    0   66 8581474.21 8489064.24  1.08%     -    0s
     0     0 8489064.24    0   66 8581474.21 8489064.24  1.08%     -    0s
H    0     0                    8555171.3986 8489064.24  0.77%     -    0s
     0     2 8490627.67    0   66 8555171.40 8490627.67  0.75%     -    0s

Cutting planes:
  Gomory: 15
  Cover: 2
  Implied bound: 25
  MIR: 96
  Network: 13
  Relax-and-lift: 11

Explored 1533 nodes (32699 simplex iterations) in 1.07 seconds
Thread count was 8 (of 8 available processors)

Solution count 4: 8.55517e+06 8.58147e+06 9.36169e+06 3.3455e+07 

Optimal solution found (tolerance 1.00e-04)
Best objective 8.555171398608e+06, best bound 8.555171398608e+06, gap 0.0000%

User-callback calls 3813, time in user-callback 0.02 sec

Solução: 8555171.398607939481735
Conexões:
> Subestação = 30
> Valores: origem destino cabo
0 5 0
1 6 0
2 3 1
3 4 1
4 30 1
5 6 0
6 7 0
7 2 0
8 9 1
9 30 1
10 11 0
11 12 0
12 8 0
13 12 0
14 30 1
15 11 0
16 17 0
17 18 0
18 14 1
19 30 1
20 21 0
21 16 0
22 23 0
23 19 0
24 19 0
25 21 0
26 22 0
27 26 0
28 29 0
29 24 0
